
List of user-set options:

                                    Name   Value                used
                           compl_inf_tol = 1                     yes
                         constr_viol_tol = 1                     yes
                            dual_inf_tol = 1000                  yes
                           linear_solver = ma97                  yes
                              ma86_small = 1e-30                  no
                                  ma86_u = 0.0001                 no
                              ma97_order = best                  yes
                              ma97_small = 1e-30                 yes
                            ma97_switch1 = at_start              yes
                            ma97_switch2 = od_hd_reuse           yes
                                  ma97_u = 1e-06                 yes
                               ma97_umax = 0.5                   yes
                                max_iter = 2000                  yes
                    max_refinement_steps = 20                    yes
                    min_refinement_steps = 5                     yes
                                 mu_init = 1e-06                 yes
           mu_superlinear_decrease_power = 1.25                  yes
                   nlp_scaling_min_value = 1e-08                 yes
                        option_file_name = Preset_Case:_364_NCP.opt  yes
                             output_file = ./tmp/Preset_Case:_364_NCP.output  yes
                      print_user_options = yes                   yes
        required_infeasibility_reduction = 1                      no
                                     tol = 1e-08                 yes
                   warm_start_bound_frac = 1e-20                 yes
                   warm_start_bound_push = 1e-20                 yes
                   warm_start_init_point = yes                   yes
              warm_start_mult_bound_push = 1e-20                 yes
                warm_start_mult_init_max = 1e+40                 yes
             warm_start_slack_bound_frac = 1e-20                 yes
             warm_start_slack_bound_push = 1e-20                 yes

******************************************************************************
This program contains Ipopt, a library for large-scale nonlinear optimization.
 Ipopt is released as open source code under the Eclipse Public License (EPL).
         For more information visit http://projects.coin-or.org/Ipopt
******************************************************************************

This is Ipopt version 3.12.10, running with linear solver ma97.

Number of nonzeros in equality constraint Jacobian...:   117140
Number of nonzeros in inequality constraint Jacobian.:      213
Number of nonzeros in Lagrangian Hessian.............:    47462

Total number of variables............................:    29971
                     variables with only lower bounds:    11312
                variables with lower and upper bounds:    15132
                     variables with only upper bounds:        0
Total number of equality constraints.................:    29864
Total number of inequality constraints...............:       25
        inequality constraints with only lower bounds:        4
   inequality constraints with lower and upper bounds:        0
        inequality constraints with only upper bounds:       21

iter    objective    inf_pr   inf_du lg(mu)  ||d||  lg(rg) alpha_du alpha_pr  ls
   0 -5.2905107e-02 3.29e-01 9.44e+01  -6.0 0.00e+00    -  0.00e+00 0.00e+00   0
In iteration 0, 1 Slack too small, adjusting variable bound
   1 -5.2905107e-02 3.29e-01 9.44e+01  -6.0 1.52e+04   0.0 2.38e-08 3.41e-12f  1
   2 -5.2905106e-02 3.29e-01 9.44e+01  -6.0 9.00e+01  -0.5 7.51e-07 1.55e-07f  1
   3 -5.2905005e-02 3.29e-01 9.44e+01  -6.0 9.12e+01  -1.0 1.93e-07 9.56e-06f  1
   4 -5.2904999e-02 3.29e-01 9.44e+01  -6.0 9.14e+01  -0.5 1.08e-05 6.12e-07f  2
   5 -5.2904857e-02 3.29e-01 9.44e+01  -6.0 1.04e+02  -1.0 9.05e-08 1.00e-05f  1
   6 -5.2904672e-02 3.29e-01 9.44e+01  -6.0 9.08e+01  -0.6 1.26e-06 1.82e-05f  1
   7 -5.2904397e-02 3.29e-01 9.44e+01  -6.0 9.64e+01  -1.1 4.17e-06 1.47e-05f  1
   8 -5.2904118e-02 3.29e-01 9.44e+01  -6.0 8.82e+01  -0.6 2.22e-06 1.76e-05f  1
   9 -5.2904087e-02 3.29e-01 9.44e+01  -6.0 8.67e+01  -0.2 5.64e-06 1.17e-06f  2
iter    objective    inf_pr   inf_du lg(mu)  ||d||  lg(rg) alpha_du alpha_pr  ls
  10 -5.2903967e-02 3.29e-01 9.44e+01  -6.0 8.90e+01  -0.7 1.67e-06 4.38e-06h  2
  11 -5.2903899e-02 3.29e-01 9.44e+01  -6.0 8.54e+01  -0.3 3.16e-06 2.36e-06h  2
  12 -5.2903483e-02 3.29e-01 1.05e+02  -6.0 9.42e+01  -0.7 2.46e-06 1.25e-05h  1
  13 -5.2903480e-02 3.29e-01 1.18e+02  -6.0 8.57e+01  -0.3 2.79e-05 1.03e-07h  2
  14r-5.2903480e-02 3.29e-01 1.00e+03  -0.5 0.00e+00   0.1 0.00e+00 1.74e-07R  2
  15r-5.2904440e-02 3.29e-01 1.00e+03  -0.5 4.39e+05    -  1.20e-08 1.01e-09f  1
  16 -5.2902704e-02 3.29e-01 2.00e+00  -6.0 8.60e+01    -  4.41e-04 1.82e-04h  1
  17 -5.2901720e-02 3.29e-01 3.30e+00  -6.0 8.65e+01    -  3.33e-04 1.01e-04h  1
  18 -5.2901693e-02 3.29e-01 2.55e+03  -6.0 8.61e+01    -  1.42e-04 2.88e-06h  2
  19 -5.2901657e-02 3.29e-01 3.04e+03  -6.0 1.95e+02    -  7.07e-05 3.86e-06h  2
iter    objective    inf_pr   inf_du lg(mu)  ||d||  lg(rg) alpha_du alpha_pr  ls
  20 -5.2014052e-02 3.27e-01 4.50e+03  -6.0 8.65e+01    -  5.21e-04 6.41e-03h  1
  21 -5.0957015e-02 3.25e-01 4.37e+03  -6.0 8.60e+01    -  2.52e-03 6.04e-03h  1
  22 -4.9573929e-02 3.23e-01 4.37e+03  -6.0 8.56e+01    -  7.27e-03 5.37e-03h  1
  23 -4.5383814e-02 3.20e-01 4.34e+03  -6.0 8.52e+01    -  1.54e-02 9.60e-03h  2
  24 -4.5536582e-02 3.20e-01 4.34e+03  -6.0 8.54e+01  -0.4 3.09e-05 6.81e-05h  1
  25 -4.6171524e-02 3.20e-01 4.34e+03  -6.0 8.55e+01   0.1 2.97e-05 6.40e-05h  1
  26 -4.6133509e-02 3.20e-01 4.34e+03  -6.0 8.50e+01  -0.4 8.58e-05 2.72e-05h  1
  27 -4.6737499e-02 3.20e-01 4.33e+03  -6.0 8.57e+01   0.0 2.07e-04 4.91e-05h  1
  28 -4.6719329e-02 3.20e-01 4.33e+03  -6.0 8.36e+01  -0.5 4.68e-05 1.20e-04h  1
  29 -5.2690585e-02 3.20e-01 4.34e+03  -6.0 8.45e+01  -0.0 1.43e-04 4.86e-04f  1
iter    objective    inf_pr   inf_du lg(mu)  ||d||  lg(rg) alpha_du alpha_pr  ls
  30 -5.2690483e-02 3.20e-01 4.34e+03  -6.0 8.51e+01    -  7.22e-07 8.20e-07h  2
  31 -1.7754842e-02 3.19e-01 4.33e+03  -6.0 9.17e+01  -0.5 3.20e-05 6.93e-04h  1
  32 -2.5620174e-02 3.19e-01 4.34e+03  -6.0 8.44e+01  -0.1 1.56e-04 7.10e-04f  1
  33  3.0958981e-02 3.18e-01 4.29e+03  -6.0 8.08e+01  -0.6 1.51e-03 3.73e-03h  1
  34  2.6695339e-02 3.18e-01 4.22e+03  -6.0 8.26e+01  -0.1 3.77e-03 4.48e-04h  1
  35  1.3963499e-01 3.15e-01 4.16e+03  -6.0 8.11e+01  -0.6 5.39e-03 7.70e-03h  1
  36  1.0822778e-01 3.14e-01 4.02e+03  -6.0 8.27e+01  -0.2 1.38e-02 4.08e-03f  1
  37  2.7104499e-01 3.09e-01 4.34e+03  -6.0 8.19e+01  -0.7 2.08e-02 1.61e-02h  1
  38  1.0398222e+00 3.06e-01 5.19e+03  -6.0 8.33e+01  -1.1 4.69e-03 9.85e-03h  3
  39 -5.2281331e-02 3.06e-01 6.03e+04  -6.0 3.94e+03  -1.6 1.41e-02 6.31e-04H  1
iter    objective    inf_pr   inf_du lg(mu)  ||d||  lg(rg) alpha_du alpha_pr  ls
  40 -2.8269740e-02 3.06e-01 5.92e+04  -6.0 8.04e+01  -1.2 6.26e-03 4.85e-04h  1
  41  9.6628757e-02 3.04e-01 5.93e+04  -6.0 7.85e+01  -1.7 1.02e-03 5.29e-03h  1
  42  9.5055803e-01 5.41e-01 5.53e+04  -6.0 8.05e+01  -1.2 5.53e-02 3.00e-02h  2
  43  8.8947859e-01 5.38e-01 5.53e+04  -6.0 4.40e+02  -1.7 1.38e-02 2.76e-03f  1
  44  8.7236394e-01 5.32e-01 5.52e+04  -6.0 7.97e+01  -1.3 6.70e-02 4.88e-03h  1
  45  7.6940822e-01 5.21e-01 5.47e+04  -6.0 7.33e+01  -1.8 9.49e-02 7.02e-03f  3
  46  7.0500983e-01 5.03e-01 5.37e+04  -6.0 7.83e+01  -1.3 1.42e-01 1.10e-02f  4
  47  5.1559408e-01 4.91e-01 5.34e+04  -6.0 7.57e+01  -1.8 5.40e-02 6.28e-03f  3
  48  3.7352028e-01 4.62e-01 5.11e+04  -6.0 7.62e+01  -1.4 1.71e-01 1.52e-02f  3
  49 -5.2634121e-02 4.38e-01 5.07e+04  -6.0 8.29e+01  -1.9 5.15e-02 9.20e-03f  1
iter    objective    inf_pr   inf_du lg(mu)  ||d||  lg(rg) alpha_du alpha_pr  ls
  50 -5.2663316e-02 4.31e-01 4.42e+04  -6.0 7.31e+01  -1.4 2.48e-01 1.14e-02h  2
  51 -5.2720960e-02 4.29e-01 4.19e+04  -6.0 7.60e+01  -1.9 6.56e-02 4.40e-03h  1
  52 -5.3964432e-02 1.66e+00 4.60e+05  -6.0 7.48e+01  -1.5 2.98e-01 1.70e-01h  1
  53 -5.4368026e-02 1.70e+00 5.17e+05  -6.0 6.79e+01  -1.1 1.84e-02 3.89e-02h  1
  54 -5.4936643e-02 3.39e+00 6.66e+05  -6.0 1.43e+02  -1.6 2.85e-07 4.83e-02f  1
  55r-5.4936643e-02 3.39e+00 1.00e+03   0.2 0.00e+00  -1.1 0.00e+00 6.81e-08R  2
  56r-5.4440348e-02 3.31e+00 1.03e+03   0.2 2.57e+06    -  1.25e-06 4.85e-07f  1
  57 -5.4448892e-02 3.31e+00 6.69e+01  -6.0 7.94e+01    -  3.50e-02 1.58e-03h  1
  58 -5.4449759e-02 3.30e+00 1.30e+03  -6.0 8.08e+01    -  5.88e-02 1.50e-04h  1
  59 -5.4993908e-02 3.01e+00 1.17e+03  -6.0 8.31e+01    -  7.35e-02 8.70e-02h  1
iter    objective    inf_pr   inf_du lg(mu)  ||d||  lg(rg) alpha_du alpha_pr  ls
  60 -5.4995158e-02 3.01e+00 1.56e+03  -6.0 7.34e+01    -  1.90e-01 5.07e-04h  1
  61 -5.5078882e-02 2.79e+00 3.01e+03  -6.0 8.55e+01    -  1.74e-01 4.75e-02h  1
  62 -5.5299868e-02 2.69e+00 4.02e+03  -6.0 1.11e+02    -  1.12e-02 3.22e-02h  1
  63 -5.7311525e-02 2.63e+00 3.91e+04  -6.0 1.19e+02    -  1.81e-02 1.66e-01f  1
  64 -5.7543028e-02 2.69e+00 3.95e+04  -6.0 1.67e+02    -  1.13e-01 2.31e-02h  1
  65 -5.7744634e-02 2.79e+00 3.89e+04  -6.0 2.94e+02    -  3.26e-02 1.64e-02h  1
  66 -5.8360276e-02 4.34e+00 3.75e+04  -6.0 3.49e+02    -  6.96e-02 5.13e-02f  1
  67 -6.0260539e-02 1.93e+01 2.03e+07  -6.0 5.60e+02    -  1.51e-01 1.19e-01h  1
  68r-6.0260539e-02 1.93e+01 1.00e+03   0.8 0.00e+00    -  0.00e+00 4.98e-07R  2
  69r-6.0178919e-02 1.93e+01 4.43e+03   0.8 7.45e+03    -  1.81e-06 5.68e-07f  1
iter    objective    inf_pr   inf_du lg(mu)  ||d||  lg(rg) alpha_du alpha_pr  ls
  70 -6.0179340e-02 1.93e+01 2.67e+05  -6.0 5.67e+02    -  3.92e-02 2.27e-05h  1
  71 -6.0294832e-02 1.92e+01 6.31e+07  -6.0 6.07e+02    -  2.36e-05 5.57e-03h  1
  72 -6.1005063e-02 2.05e+01 6.08e+07  -6.0 6.82e+02    -  1.06e-02 3.62e-02f  1
  73 -6.1239833e-02 2.06e+01 6.01e+07  -6.0 1.39e+03    -  1.44e-02 1.21e-02h  1
  74 -6.1249204e-02 2.06e+01 6.01e+07  -6.0 2.16e+03    -  1.28e-02 3.17e-04h  1
  75 -6.1925051e-02 2.05e+01 5.91e+07  -6.0 2.36e+03    -  3.51e-02 1.55e-02h  1
  76 -6.2663776e-02 2.03e+01 5.82e+07  -6.0 3.27e+03    -  1.06e-02 1.56e-02h  1
  77 -6.2920272e-02 2.02e+01 5.79e+07  -6.0 3.92e+03    -  1.12e-01 4.71e-03h  1
  78 -6.6802468e-02 1.98e+01 5.27e+07  -6.0 4.21e+03    -  3.27e-02 8.94e-02h  1
  79 -6.9363012e-02 1.88e+01 4.13e+07  -6.0 4.32e+03    -  2.65e-01 2.17e-01h  1
iter    objective    inf_pr   inf_du lg(mu)  ||d||  lg(rg) alpha_du alpha_pr  ls
  80 -6.9321490e-02 1.87e+01 4.10e+07  -6.0 1.99e+03    -  1.28e-03 7.93e-03h  1
  81 -7.0570893e-02 1.73e+01 3.17e+07  -6.0 1.76e+03    -  3.39e-02 2.26e-01h  1
  82 -7.1868682e-02 1.44e+01 2.29e+07  -6.0 1.20e+03    -  6.81e-02 2.77e-01h  1
  83 -7.2306657e-02 1.43e+01 2.28e+07  -6.0 3.23e+02  -1.6 1.47e-03 6.79e-03h  1
  84 -7.2323021e-02 1.43e+01 2.28e+07  -6.0 3.84e+02  -2.1 2.23e-04 4.54e-04h  1
  85 -7.2332579e-02 1.43e+01 2.28e+07  -6.0 5.20e+02  -2.6 1.22e-02 7.02e-04h  1
  86 -7.2493804e-02 1.42e+01 2.26e+07  -6.0 3.36e+02  -2.1 2.06e-03 7.12e-03h  1
  87 -7.4270219e-02 9.78e+00 9.19e+06  -6.0 8.26e+02    -  3.47e-01 5.93e-01h  1
  88 -7.4409626e-02 8.49e+00 7.96e+06  -6.0 2.98e+02    -  2.89e-06 1.35e-01h  1
  89 -7.4653304e-02 5.30e+00 4.91e+06  -6.0 1.63e+02    -  4.13e-01 3.82e-01h  1
iter    objective    inf_pr   inf_du lg(mu)  ||d||  lg(rg) alpha_du alpha_pr  ls
  90 -7.4824772e-02 2.78e+00 2.56e+06  -6.0 8.31e+01    -  4.33e-01 4.80e-01h  1
  91 -7.5014614e-02 1.01e+00 9.26e+05  -6.0 7.19e+01    -  6.36e-01 6.37e-01h  1
  92 -7.5163251e-02 6.87e-01 6.21e+05  -6.0 1.37e+02    -  3.31e-01 3.30e-01h  1
  93 -7.5178707e-02 6.07e-01 8.86e+05  -6.0 2.52e+02    -  7.47e-01 4.90e-01h  2
  94 -7.6422829e-02 2.89e+00 7.57e+06  -6.0 2.84e+02    -  3.25e-01 5.77e-01H  1
  95 -7.6340421e-02 2.78e+00 7.20e+06  -6.0 5.45e+02    -  3.21e-01 4.88e-02h  1
  96r-7.6340421e-02 2.78e+00 1.00e+03  -0.1 0.00e+00    -  0.00e+00 1.54e-08R  8
  97r-7.6476842e-02 2.80e+00 1.00e+03  -0.1 1.32e+07    -  2.79e-07 2.25e-07f  1
  98r-7.6479599e-02 2.78e+00 1.04e+03  -0.1 2.82e+03  -2.0 8.35e-06 4.52e-06f  1
  99r-7.6205217e-02 2.72e+00 1.92e+03  -0.1 2.05e+03  -2.5 1.05e-05 2.62e-05f  1
iter    objective    inf_pr   inf_du lg(mu)  ||d||  lg(rg) alpha_du alpha_pr  ls
 100 -7.6260835e-02 2.43e+00 1.77e+06  -6.0 2.08e+01    -  1.18e-03 1.07e-01h  1
 101 -7.6280225e-02 2.33e+00 1.71e+06  -6.0 1.96e+01    -  1.07e-01 3.82e-02h  1
 102 -7.6447355e-02 1.60e+00 1.18e+06  -6.0 1.83e+01    -  7.02e-02 3.13e-01h  1
 103 -7.6619566e-02 9.58e-01 7.03e+05  -6.0 1.27e+01    -  6.36e-02 4.02e-01h  1
 104 -7.6727728e-02 5.95e-01 4.37e+05  -6.0 8.00e+00    -  3.80e-01 3.79e-01h  1
 105 -7.6856526e-02 2.05e-01 1.50e+05  -6.0 5.06e+00    -  4.71e-01 6.56e-01h  1
 106 -7.6913358e-02 9.87e-02 7.25e+04  -6.0 1.72e+00    -  8.24e-01 5.18e-01h  1
 107 -7.7186041e-02 3.53e-03 2.41e+03  -6.0 2.09e+00    -  7.90e-01 9.67e-01h  1
 108 -7.7640068e-02 2.61e-03 1.61e+03  -6.0 1.03e+01    -  2.57e-01 3.32e-01f  1
 109 -7.9878402e-02 3.83e-02 3.92e+01  -6.0 1.44e+01    -  5.03e-01 9.87e-01f  1
iter    objective    inf_pr   inf_du lg(mu)  ||d||  lg(rg) alpha_du alpha_pr  ls
 110 -8.1287389e-02 3.30e-02 1.98e+03  -6.0 4.70e+01    -  1.56e-01 2.09e-01h  1
 111 -8.1714450e-02 2.79e-02 1.15e+03  -6.0 2.73e+01    -  2.49e-01 1.62e-01f  1
 112 -8.3197174e-02 2.20e-02 6.15e+02  -6.0 4.09e+01    -  4.83e-01 2.51e-01f  1
 113 -8.4207911e-02 2.49e-02 4.04e+02  -6.0 7.34e+01    -  5.25e-01 1.43e-01h  1
 114 -8.9278471e-02 1.58e+00 4.78e+03  -6.0 1.46e+02    -  1.99e-01 4.87e-01f  1
 115 -9.1460300e-02 2.00e+00 4.46e+03  -6.0 1.73e+02    -  4.30e-01 1.60e-01h  1
 116 -1.0072613e-01 4.78e+01 5.12e+03  -6.0 2.93e+02    -  1.01e-01 4.07e-01h  1
 117 -1.0197885e-01 4.45e+01 4.70e+03  -6.0 7.71e+01    -  3.12e-01 8.63e-02h  1
 118 -1.0812677e-01 5.49e+01 3.51e+03  -6.0 9.98e+01    -  1.24e-01 3.38e-01h  1
 119 -1.0812476e-01 5.47e+01 3.50e+03  -6.0 3.36e+01  -2.6 2.22e-03 3.43e-03h  1
iter    objective    inf_pr   inf_du lg(mu)  ||d||  lg(rg) alpha_du alpha_pr  ls
 120 -1.0811882e-01 5.41e+01 3.46e+03  -6.0 3.34e+01  -3.1 2.84e-03 1.08e-02h  1
 121 -1.0808609e-01 5.37e+01 3.43e+03  -6.0 3.29e+01  -3.6 1.13e-02 7.62e-03h  1
 122 -1.0805475e-01 5.28e+01 3.38e+03  -6.0 3.08e+01  -3.1 2.51e-02 1.61e-02h  1
 123 -1.0802258e-01 5.27e+01 3.37e+03  -6.0 8.64e+01  -3.6 7.52e-03 1.74e-03h  1
 124 -1.0795620e-01 5.18e+01 3.31e+03  -6.0 2.72e+01  -3.2 5.87e-02 1.78e-02h  1
 125 -1.0783566e-01 5.18e+01 3.31e+03  -6.0 1.43e+03  -3.7 2.59e-05 3.54e-04h  1
 126 -1.0780159e-01 5.15e+01 3.29e+03  -6.0 2.51e+01  -3.2 3.90e-02 5.46e-03h  1
 127 -1.0767557e-01 4.95e+01 3.17e+03  -6.0 2.09e+01  -2.8 1.00e-02 3.79e-02h  1
 128 -1.0760165e-01 4.92e+01 3.15e+03  -6.0 4.64e+01  -3.3 2.00e-02 6.60e-03h  1
 129 -1.0735968e-01 4.61e+01 2.95e+03  -6.0 1.52e+01  -2.9 2.38e-01 6.23e-02h  1
iter    objective    inf_pr   inf_du lg(mu)  ||d||  lg(rg) alpha_du alpha_pr  ls
 130 -1.0655420e-01 4.23e+01 2.70e+03  -6.0 4.08e+01  -3.3 8.43e-03 8.48e-02h  1
 131 -1.0646830e-01 4.22e+01 2.69e+03  -6.0 1.92e+02  -3.8 2.89e-02 2.62e-03h  1
 132 -1.0588104e-01 2.08e+01 1.43e+03  -6.0 1.02e+01  -3.4 2.10e-02 5.48e-01h  1
 133 -1.0589025e-01 1.95e+01 1.34e+03  -6.0 1.36e+01  -3.9 2.93e-01 6.18e-02h  1
 134 -1.0651817e-01 8.76e+00 5.79e+02  -6.0 4.85e+00  -3.4 4.96e-01 5.67e-01h  1
 135 -1.0660781e-01 7.03e+00 4.64e+02  -6.0 2.23e+00  -3.9 8.35e-02 1.98e-01h  1
 136 -1.0660909e-01 4.65e+00 3.01e+02  -6.0 4.55e+00  -4.4 8.37e-01 3.52e-01h  1
 137 -1.0669740e-01 2.73e+00 1.76e+02  -6.0 1.71e+00  -4.0 2.68e-01 4.14e-01h  1
 138 -1.0695400e-01 9.19e-03 6.08e+00  -6.0 1.31e+00  -4.4 7.28e-01 1.00e+00h  1
 139 -1.0720157e-01 8.73e-02 4.15e+00  -6.0 2.75e+00  -4.9 3.67e-01 6.26e-01h  1
iter    objective    inf_pr   inf_du lg(mu)  ||d||  lg(rg) alpha_du alpha_pr  ls
 140 -1.0743926e-01 1.17e-01 1.27e+01  -6.0 7.76e+00  -5.4 5.20e-01 1.80e-01h  1
 141 -1.0864557e-01 1.20e+00 6.37e+01  -6.0 2.04e+01  -5.9 7.77e-01 3.46e-01h  1
 142 -1.1090010e-01 5.08e+00 5.20e+01  -6.0 8.38e+01  -6.4 2.32e-01 1.95e-01h  1
 143 -1.1147184e-01 5.57e-02 1.49e+02  -6.0 4.02e+00  -5.0 2.66e-01 9.83e-01h  1
 144 -1.1138801e-01 4.43e-02 7.67e+01  -6.0 3.44e+00  -5.5 8.81e-01 4.58e-01h  1
 145 -1.1205855e-01 2.54e-02 1.17e+00  -6.0 9.03e+00  -6.0 1.00e+00 1.00e+00f  1
 146 -1.1231498e-01 2.10e-02 4.48e+00  -6.0 1.97e+01  -6.5 1.00e+00 2.43e-01h  1
 147 -1.1253251e-01 1.86e-02 1.35e+01  -6.0 6.74e+01  -6.9 6.97e-01 1.19e-01h  1
 148 -1.1351212e-01 4.05e-01 3.31e+02  -6.0 3.00e+02  -7.4 4.38e-01 2.21e-01h  1
 149 -1.1510259e-01 1.38e+00 1.35e+03  -6.0 9.48e+01  -7.0 1.56e-01 8.70e-01h  1
iter    objective    inf_pr   inf_du lg(mu)  ||d||  lg(rg) alpha_du alpha_pr  ls
 150 -1.1553978e-01 1.90e-01 7.76e+01  -6.0 3.65e+01  -6.6 1.00e+00 1.00e+00h  1
 151 -1.1583753e-01 2.08e-01 6.73e+01  -6.0 1.27e+02  -7.0 1.00e+00 1.60e-01h  1
 152 -1.1614825e-01 3.05e-01 3.72e+02  -6.0 1.21e+02  -7.5 1.19e-01 5.07e-01h  1
 153 -1.1617203e-01 2.99e-01 3.16e+02  -6.0 4.93e+01  -6.2 3.90e-02 3.19e-01h  1
 154 -1.1618171e-01 2.78e-01 2.98e+02  -6.0 1.71e+01  -5.8 1.27e-01 6.82e-02h  1
 155 -1.1626170e-01 2.40e-01 2.65e+02  -6.0 4.14e+01  -6.2 2.09e-01 1.38e-01f  1
 156 -1.1627097e-01 2.32e-01 2.55e+02  -6.0 1.04e+01  -5.8 2.34e-02 3.74e-02h  1
 157 -1.1627233e-01 2.31e-01 2.55e+02  -6.0 2.67e+02  -6.3 7.30e-05 4.41e-04h  1
 158 -1.1627238e-01 2.31e-01 2.55e+02  -6.0 1.74e+03  -5.9 2.59e-07 2.23e-06f  2
 159 -1.1596857e-01 1.77e-01 1.92e+02  -6.0 8.93e+01  -5.4 1.29e-01 2.41e-01h  1
iter    objective    inf_pr   inf_du lg(mu)  ||d||  lg(rg) alpha_du alpha_pr  ls
 160 -1.1610803e-01 6.27e-02 3.79e+01  -6.0 2.79e+00  -5.9 6.70e-01 7.52e-01f  1
 161 -1.1629436e-01 1.18e-01 9.97e+00  -6.0 1.17e+01  -6.4 3.71e-01 1.00e+00f  1
 162 -1.1645171e-01 7.66e-02 1.15e+01  -6.0 2.54e+01  -6.9 5.36e-01 3.48e-01h  1
 163 -1.1648424e-01 7.54e-02 1.84e+01  -6.0 1.65e+02  -7.3 7.99e-02 2.00e-02f  1
 164 -1.1675508e-01 6.26e-02 3.39e+02  -6.0 3.48e+01  -6.9 9.60e-01 1.00e+00f  1
 165 -1.1683887e-01 4.14e-02 2.57e+02  -6.0 1.38e+01  -6.5 3.23e-01 3.54e-01h  1
 166 -1.1691342e-01 2.94e-02 3.76e+02  -6.0 3.83e+01  -7.0 3.79e-01 3.00e-01h  1
 167 -1.1740128e-01 1.48e-01 7.45e+01  -6.0 8.89e+01  -7.4 8.90e-01 7.96e-01f  1
 168 -1.1800410e-01 3.15e-01 2.48e+02  -6.0 2.26e+02  -7.9 6.01e-01 4.38e-01h  1
 169 -1.1927678e-01 8.17e-01 2.17e+04  -6.0 4.30e+02  -8.4 3.66e-02 4.44e-01h  1
iter    objective    inf_pr   inf_du lg(mu)  ||d||  lg(rg) alpha_du alpha_pr  ls
 170 -1.1992174e-01 7.72e-01 1.70e+04  -6.0 4.50e+02  -8.9 8.16e-01 2.20e-01h  1
 171 -1.2338386e-01 2.43e+01 6.03e+03  -6.0 1.67e+03  -9.4 1.28e-01 6.46e-01h  1
 172 -1.2384982e-01 6.53e+00 1.97e+03  -6.0 1.58e+02  -8.0 4.29e-01 7.43e-01h  1
 173 -1.2434633e-01 4.90e+00 1.36e+03  -6.0 4.70e+02  -8.5 3.02e-01 3.11e-01h  1
 174 -1.2601581e-01 7.60e+00 1.05e+04  -6.0 8.72e+02  -9.0 2.91e-01 6.29e-01h  1
 175 -1.2676264e-01 6.92e+00 1.15e+04  -6.0 1.84e+03  -9.5 2.63e-01 1.15e-01h  1
 176 -1.2681677e-01 6.80e+00 9.63e+04  -6.0 7.14e+02  -9.0 5.64e-01 1.81e-02h  1
 177 -1.2772356e-01 6.78e+00 1.04e+07  -6.0 8.15e+04  -9.5 4.93e-05 3.64e-03h  1
 178 -1.2794158e-01 5.65e+00 5.88e+06  -6.0 7.25e+02  -9.1 3.14e-02 4.32e-01h  1
 179 -1.2821145e-01 5.40e+00 5.55e+06  -6.0 1.97e+03  -9.6 1.13e-01 5.65e-02h  1
iter    objective    inf_pr   inf_du lg(mu)  ||d||  lg(rg) alpha_du alpha_pr  ls
 180 -1.2877192e-01 5.13e+00 3.66e+03  -6.0 5.13e+02  -9.1 6.25e-02 1.00e+00h  1
 181 -1.2896534e-01 4.79e+00 2.83e+03  -6.0 9.92e+02  -9.6 5.63e-01 1.62e-01h  1
 182 -1.2906558e-01 4.86e+00 2.64e+03  -6.0 4.03e+03 -10.1 2.21e-01 4.93e-02h  1
 183 -1.2874798e-01 1.36e+01 2.12e+03  -6.0 3.67e+03  -9.7 1.97e-01 1.97e-01h  1
 184 -1.2904937e-01 1.00e+01 1.40e+03  -6.0 4.35e+02  -9.2 1.00e+00 2.77e-01h  1
 185 -1.2950614e-01 1.12e+01 9.19e+02  -6.0 1.36e+03  -9.7 6.57e-01 3.42e-01h  1
 186 -1.2986803e-01 8.43e+00 6.39e+02  -6.0 8.33e+02  -9.3 4.82e-02 3.08e-01h  1
 187 -1.2999733e-01 5.81e+00 4.40e+02  -6.0 4.48e+02  -8.9 4.04e-02 3.17e-01h  1
 188 -1.3003237e-01 5.70e+00 4.31e+02  -6.0 1.17e+03  -9.3 8.44e-02 1.89e-02h  1
 189 -1.3036808e-01 6.95e-01 2.73e+01  -6.0 1.89e+02  -8.9 7.36e-01 1.00e+00h  1
iter    objective    inf_pr   inf_du lg(mu)  ||d||  lg(rg) alpha_du alpha_pr  ls
 190 -1.3046920e-01 9.33e-01 3.91e+01  -6.0 6.24e+02  -9.4 3.90e-01 2.22e-01h  1
 191 -1.3078444e-01 1.72e+01 1.42e+02  -6.0 3.17e+03  -9.9 2.54e-01 2.84e-01h  1
 192 -1.3114459e-01 1.20e+01 1.54e+03  -6.0 8.73e+02  -9.4 9.34e-01 6.05e-01h  1
 193 -1.3155893e-01 6.80e+00 9.22e+02  -6.0 1.39e+03  -9.9 3.83e-01 5.13e-01h  1
 194 -1.3236558e-01 1.53e+01 2.70e+03  -6.0 4.92e+02  -7.7 1.09e-01 5.27e-01h  1
 195 -1.3199216e-01 9.39e+00 1.06e+04  -6.0 1.15e+02  -7.3 5.77e-02 7.60e-01h  1
 196 -1.3218216e-01 4.92e+00 2.04e+03  -6.0 1.59e+02  -7.7 6.72e-01 8.06e-01h  1
 197 -1.3246283e-01 6.30e+00 1.54e+03  -6.0 1.90e+02  -7.3 1.28e-01 2.49e-01h  1
 198 -1.3277642e-01 8.31e+00 1.32e+03  -6.0 1.59e+02  -6.9 9.19e-02 1.40e-01h  1
 199 -1.3279238e-01 8.12e+00 1.29e+03  -6.0 4.04e+01  -7.4 4.08e-01 2.41e-02h  1
iter    objective    inf_pr   inf_du lg(mu)  ||d||  lg(rg) alpha_du alpha_pr  ls
 200 -1.3318166e-01 7.69e+00 1.08e+03  -6.0 2.66e+02  -7.8 2.85e-01 1.61e-01h  1
 201 -1.3368942e-01 8.36e+00 1.07e+03  -6.0 1.41e+05    -  1.72e-02 1.12e-02h  1
 202 -1.3407716e-01 9.17e+00 1.49e+03  -6.0 1.78e+05    -  7.35e-03 6.66e-03h  1
 203 -1.3378426e-01 9.13e+00 1.44e+03  -6.0 1.43e+03  -8.3 1.65e-02 3.25e-02h  2
 204 -1.3400929e-01 8.15e+00 1.28e+03  -6.0 3.76e+02  -8.8 1.76e-01 1.16e-01h  1
 205 -1.3436244e-01 8.90e+00 2.25e+03  -6.0 1.01e+05    -  2.64e-03 9.87e-03h  1
 206 -1.3504150e-01 3.60e+01 7.15e+03  -6.0 4.90e+04    -  2.12e-02 3.86e-02h  1
 207 -1.3527953e-01 3.25e+01 6.50e+03  -6.0 4.00e+03    -  1.75e-02 9.63e-02h  1
 208 -1.3578549e-01 2.52e+01 5.62e+03  -6.0 3.41e+03    -  1.90e-01 2.25e-01h  1
 209 -1.3600175e-01 1.82e+01 4.67e+03  -6.0 1.55e+03    -  4.16e-01 2.81e-01h  1
iter    objective    inf_pr   inf_du lg(mu)  ||d||  lg(rg) alpha_du alpha_pr  ls
 210 -1.3642363e-01 7.69e+00 3.41e+03  -6.0 1.36e+03    -  6.44e-01 5.97e-01h  1
 211 -1.3653642e-01 6.16e+00 2.71e+03  -6.0 4.28e+02  -9.3 1.17e-01 2.14e-01h  1
 212 -1.3665953e-01 9.35e+00 2.34e+03  -6.0 2.47e+03    -  1.03e-01 1.35e-01h  1
 213 -1.3676066e-01 8.76e+00 1.97e+03  -6.0 1.53e+02  -8.8 1.79e-01 1.58e-01h  1
 214 -1.3692167e-01 8.48e+00 1.45e+03  -6.0 2.52e+02  -9.3 1.00e+00 2.86e-01h  1
 215 -1.3708721e-01 1.05e+01 7.17e+02  -6.0 4.55e+02    -  2.40e-01 5.06e-01h  1
 216 -1.3715515e-01 9.55e+00 6.36e+02  -6.0 7.12e+02  -9.8 1.91e-01 1.52e-01h  1
 217 -1.3724987e-01 6.91e+00 3.45e+02  -6.0 2.58e+02  -9.4 2.27e-01 4.63e-01h  1
 218 -1.3742021e-01 1.02e+00 9.15e+01  -6.0 1.86e+02  -8.9 4.60e-01 1.00e+00h  1
 219 -1.3744154e-01 1.04e+00 1.11e+02  -6.0 7.98e+02  -9.4 2.65e-01 9.15e-02h  2
iter    objective    inf_pr   inf_du lg(mu)  ||d||  lg(rg) alpha_du alpha_pr  ls
 220 -1.3760250e-01 1.61e+00 4.94e+02  -6.0 5.61e+01  -7.2 4.35e-02 6.58e-01h  1
 221 -1.3764892e-01 5.98e+00 2.47e+02  -6.0 2.26e+01  -7.7 3.54e-01 5.55e-01h  1
 222 -1.3776178e-01 5.51e+00 8.42e+01  -6.0 9.09e+00  -7.2 6.81e-01 6.94e-01h  1
 223 -1.3789023e-01 2.37e+00 7.06e+01  -6.0 3.17e+01  -7.7 5.56e-01 5.99e-01h  1
 224 -1.3792868e-01 7.08e+00 2.30e+02  -6.0 9.88e+01  -8.2 1.00e+00 6.44e-01h  1
 225 -1.3793492e-01 5.25e+00 1.38e+02  -6.0 1.19e+01  -6.9 7.43e-01 2.59e-01h  1
 226 -1.3799376e-01 1.27e+00 2.47e+02  -6.0 1.12e+01  -7.3 1.00e+00 1.00e+00h  1
 227 -1.3801441e-01 4.08e-01 8.67e+02  -6.0 3.81e+01  -7.8 1.00e+00 8.23e-01h  1
 228 -1.3803706e-01 1.75e-01 2.49e+02  -6.0 7.19e+01  -8.3 1.00e+00 7.91e-01h  1
 229 -1.3810023e-01 1.33e+00 6.19e+02  -6.0 2.26e+02  -8.8 1.00e+00 9.56e-01h  1
iter    objective    inf_pr   inf_du lg(mu)  ||d||  lg(rg) alpha_du alpha_pr  ls
 230 -1.3813312e-01 1.34e+00 9.63e+02  -6.0 2.77e+02  -9.3 1.00e+00 1.00e+00h  1
 231 -1.3815154e-01 1.32e+00 9.52e+02  -6.0 1.89e+04  -9.7 1.13e-02 1.09e-02h  1
 232 -1.3818624e-01 4.79e+00 8.96e+02  -6.0 7.48e+03    -  2.18e-01 6.05e-02h  1
 233 -1.3827798e-01 5.07e+00 8.33e+02  -6.0 4.67e+03 -10.2 6.01e-02 1.07e-01h  1
 234 -1.3826986e-01 4.96e+00 8.16e+02  -6.0 4.33e+03    -  1.58e-01 2.11e-02h  1
 235 -1.3826138e-01 1.98e+01 7.05e+02  -6.0 1.71e+03    -  9.54e-01 6.06e-01h  1
 236 -1.3829180e-01 2.07e+01 1.33e+03  -6.0 3.04e+03    -  4.09e-01 1.88e-01h  1
 237 -1.3832661e-01 2.60e+01 3.31e+03  -6.0 3.63e+03    -  1.21e-01 2.43e-01h  1
 238 -1.3833453e-01 2.57e+01 3.20e+03  -6.0 5.75e+03    -  1.72e-01 3.49e-02h  1
 239 -1.3830221e-01 3.57e+01 1.08e+04  -6.0 4.33e+03    -  3.23e-02 2.34e-01h  1
iter    objective    inf_pr   inf_du lg(mu)  ||d||  lg(rg) alpha_du alpha_pr  ls
 240 -1.3836425e-01 3.59e+01 9.76e+03  -6.0 1.14e+04    -  2.47e-03 2.31e-02h  1
 241 -1.3848316e-01 2.33e+01 8.51e+03  -6.0 2.91e+02  -8.9 1.24e-01 3.50e-01h  1
 242 -1.3854950e-01 1.23e+01 8.92e+03  -6.0 3.35e+02  -9.4 1.18e-02 4.73e-01h  1
 243 -1.3852062e-01 8.69e+00 1.19e+06  -6.0 1.67e+02  -8.0 1.94e-03 2.94e-01h  1
 244 -1.3853133e-01 1.39e+00 1.90e+05  -6.0 2.32e+01  -8.5 4.99e-01 8.40e-01h  1
 245 -1.3851835e-01 1.06e+00 1.17e+02  -6.0 5.38e+01  -9.0 1.00e+00 1.00e+00h  1
 246 -1.3855729e-01 7.62e-01 2.66e+01  -6.0 2.22e+02  -9.5 7.79e-01 7.62e-01h  1
 247 -1.3854138e-01 1.60e+00 2.82e+00  -6.0 2.77e+02  -9.9 1.00e+00 1.00e+00h  1
 248 -1.3851795e-01 1.45e+00 6.79e+00  -6.0 3.46e+03 -10.4 6.71e-02 4.76e-02H  1
 249 -1.3850804e-01 1.34e+00 1.10e+01  -6.0 6.08e+02  -8.2 1.35e-01 8.49e-02h  2
iter    objective    inf_pr   inf_du lg(mu)  ||d||  lg(rg) alpha_du alpha_pr  ls
 250 -1.3850310e-01 1.34e+00 3.57e+01  -6.0 3.45e+02  -8.7 4.12e-02 2.47e-03h  2
 251 -1.3850295e-01 1.33e+00 2.33e+01  -6.0 1.08e+02  -7.3 3.01e-01 7.79e-03h  2
 252 -1.3849021e-01 4.49e-01 8.30e+00  -6.0 1.42e+01  -7.8 1.00e+00 1.00e+00h  1
 253 -1.3847354e-01 1.23e-01 6.75e+00  -6.0 2.51e+01  -8.3 1.00e+00 1.00e+00h  1
 254 -1.3845718e-01 5.36e-02 4.63e-01  -6.0 8.94e+00  -7.9 1.00e+00 1.00e+00h  1
 255 -1.3845140e-01 6.44e-02 1.95e+01  -6.0 2.26e+03  -8.3 4.86e-03 3.47e-04h  5
 256 -1.3844836e-01 1.44e-03 1.40e-02  -6.0 1.24e+00  -7.0 1.00e+00 1.00e+00h  1
 257 -1.3843897e-01 1.95e-02 1.67e-01  -6.0 3.53e+00  -7.5 1.00e+00 1.00e+00h  1
 258 -1.3840937e-01 4.88e-01 1.12e+00  -6.0 9.48e+00  -8.0 1.00e+00 1.00e+00H  1
 259 -1.3838827e-01 1.13e-01 1.30e+00  -6.0 3.50e+00  -7.5 1.00e+00 1.00e+00h  1
iter    objective    inf_pr   inf_du lg(mu)  ||d||  lg(rg) alpha_du alpha_pr  ls
 260 -1.3837619e-01 1.90e+00 8.03e-01  -6.0 1.42e+01  -8.0 9.15e-01 1.00e+00H  1
 261 -1.3834701e-01 3.40e-01 4.75e+00  -6.0 3.49e+00  -7.6 1.00e+00 1.00e+00h  1
 262 -1.3829582e-01 9.64e-01 1.70e+00  -6.0 1.34e+01  -8.1 1.00e+00 1.00e+00H  1
 263 -1.3823701e-01 7.94e-01 8.98e+00  -6.0 2.12e+01  -8.5 1.00e+00 1.00e+00h  1
 264 -1.3821164e-01 1.07e-01 3.60e+00  -6.0 4.59e+01  -9.0 1.00e+00 1.00e+00h  1
 265 -1.3815787e-01 2.44e+00 6.43e+01  -6.0 1.25e+04    -  4.92e-02 3.24e-02h  1
 266 -1.3818418e-01 2.39e+00 7.34e+01  -6.0 2.13e+03    -  1.04e-01 3.36e-02h  3
 267 -1.3816810e-01 2.37e+00 7.87e+01  -6.0 3.73e+03    -  5.61e-02 8.08e-03h  3
 268 -1.3814914e-01 2.35e+00 7.92e+01  -6.0 9.02e+02  -9.5 3.32e-02 7.96e-03h  3
 269 -1.3809024e-01 7.12e-01 4.43e+02  -6.0 1.57e+02  -9.1 1.47e-01 1.00e+00h  1
iter    objective    inf_pr   inf_du lg(mu)  ||d||  lg(rg) alpha_du alpha_pr  ls
 270 -1.3816329e-01 7.93e-01 2.13e+02  -6.0 1.44e+02  -9.5 1.00e+00 9.90e-01h  1
 271 -1.3813679e-01 9.56e-01 1.97e+02  -6.0 2.01e+03    -  2.95e-01 9.15e-02h  1
 272 -1.3813608e-01 2.71e-01 6.21e+02  -6.0 2.99e+02    -  1.00e+00 1.00e+00h  1
 273 -1.3814225e-01 3.77e-02 6.22e+01  -6.0 2.82e+01  -8.2 1.00e+00 1.00e+00h  1
 274 -1.3814422e-01 2.11e-02 2.61e+01  -6.0 3.15e+01  -8.7 1.00e+00 1.00e+00h  1
 275 -1.3813774e-01 7.08e-02 4.13e+01  -6.0 7.01e+01  -9.2 1.00e+00 1.00e+00h  1
 276 -1.3812686e-01 4.38e-01 2.50e+01  -6.0 1.74e+02  -9.6 1.00e+00 1.00e+00h  1
 277 -1.3809334e-01 3.48e+00 3.36e+01  -6.0 4.97e+02 -10.1 1.00e+00 1.00e+00h  1
 278 -1.3806773e-01 1.54e+01 8.15e+01  -6.0 1.14e+04    -  2.09e-01 8.20e-02h  1
 279 -1.3788753e-01 4.54e+01 4.00e+02  -6.0 2.12e+03    -  1.00e+00 8.69e-01h  1
iter    objective    inf_pr   inf_du lg(mu)  ||d||  lg(rg) alpha_du alpha_pr  ls
 280 -1.3789100e-01 4.12e+01 4.17e+02  -6.0 2.84e+03    -  3.51e-02 1.16e-01h  1
 281 -1.3792268e-01 3.54e+01 4.27e+02  -6.0 5.73e+03    -  2.01e-03 7.00e-02H  1
 282 -1.3814387e-01 3.60e+01 1.82e+03  -6.0 4.41e+03    -  4.48e-01 6.71e-01H  1
 283 -1.3811421e-01 3.07e+01 1.60e+03  -6.0 1.81e+03 -10.6 8.49e-02 1.28e-01h  1
 284 -1.3796884e-01 1.37e+01 7.88e+02  -6.0 7.20e+02    -  1.00e+00 5.54e-01h  1
 285 -1.3782225e-01 8.47e-01 4.18e+02  -6.0 2.38e+02    -  1.24e-01 1.00e+00h  1
 286 -1.3783096e-01 7.69e-01 3.81e+02  -6.0 5.82e+02 -10.2 1.00e+00 9.21e-02h  2
 287 -1.3788793e-01 5.37e-01 2.04e+02  -6.0 2.96e+02    -  6.14e-01 6.06e-01h  1
 288 -1.3798532e-01 9.27e-01 9.20e+02  -6.0 1.86e+02    -  1.82e-01 1.00e+00h  1
 289 -1.3801235e-01 7.34e-02 1.87e+02  -6.0 5.10e+01    -  1.00e+00 1.00e+00h  1
iter    objective    inf_pr   inf_du lg(mu)  ||d||  lg(rg) alpha_du alpha_pr  ls
 290 -1.3801003e-01 2.37e-02 7.53e+00  -6.0 2.61e+01    -  1.00e+00 1.00e+00h  1
 291 -1.3801002e-01 8.88e-06 7.27e-03  -6.0 6.11e-01    -  1.00e+00 1.00e+00h  1
 292 -1.3801002e-01 4.23e-10 2.30e-08  -6.0 1.34e-03    -  1.00e+00 1.00e+00h  1
 293 -1.3855089e-01 6.64e+00 1.35e+02  -7.5 3.78e+03    -  1.68e-01 1.72e-01f  1
 294 -1.3872206e-01 7.35e+00 1.16e+02  -7.5 4.32e+03    -  2.86e-02 6.08e-02h  1
 295 -1.3912248e-01 1.04e+01 7.34e+01  -7.5 2.55e+03    -  3.42e-01 2.37e-01h  1
 296 -1.3929354e-01 1.09e+01 9.80e+01  -7.5 2.43e+03    -  1.72e-01 1.83e-01h  1
 297 -1.3929679e-01 1.09e+01 1.14e+02  -7.5 1.61e+03  -9.7 3.78e-01 4.34e-03h  1
 298 -1.3969199e-01 2.24e+01 7.17e+01  -7.5 2.36e+03    -  7.42e-03 5.25e-01h  1
 299 -1.3974597e-01 1.76e+01 6.17e+01  -7.5 1.27e+03    -  1.45e-01 2.16e-01h  1
iter    objective    inf_pr   inf_du lg(mu)  ||d||  lg(rg) alpha_du alpha_pr  ls
 300 -1.3990071e-01 8.95e+00 4.96e+01  -7.5 1.19e+03    -  3.06e-01 5.12e-01f  1
 301 -1.3993105e-01 7.08e+00 2.87e+01  -7.5 2.12e+02 -10.2 5.99e-01 2.10e-01h  1
 302 -1.3994107e-01 6.72e+00 2.65e+01  -7.5 2.98e+03    -  1.40e-01 5.11e-02h  1
 303 -1.4001439e-01 6.12e+00 5.48e+01  -7.5 1.27e+03    -  1.15e-01 4.41e-01h  1
 304 -1.4002559e-01 5.57e+00 5.10e+01  -7.5 7.00e+02    -  9.81e-02 1.06e-01h  1
 305 -1.4012364e-01 6.58e+00 1.10e+02  -7.5 8.59e+02    -  1.96e-01 8.54e-01h  1
 306 -1.4017841e-01 2.84e+00 1.56e+02  -7.5 2.11e+02    -  2.71e-01 5.71e-01h  1
 307 -1.4021227e-01 1.89e+00 1.04e+02  -7.5 2.44e+02 -10.7 6.14e-01 3.37e-01h  1
 308 -1.4028538e-01 1.67e+00 2.24e+02  -7.5 4.01e+02    -  9.61e-01 7.07e-01h  1
 309 -1.4032518e-01 1.15e+00 3.06e+02  -7.5 2.40e+02    -  4.65e-01 3.67e-01h  1
iter    objective    inf_pr   inf_du lg(mu)  ||d||  lg(rg) alpha_du alpha_pr  ls
 310 -1.4035318e-01 8.81e-01 2.31e+03  -7.5 3.15e+02 -11.2 1.00e+00 2.40e-01h  1
 311 -1.4038812e-01 1.65e+00 1.60e+03  -7.5 1.07e+03    -  2.65e-01 2.87e-01h  1
 312 -1.4040982e-01 1.55e+00 1.23e+03  -7.5 8.38e+02 -11.7 1.40e-01 1.66e-01h  1
 313 -1.4044674e-01 2.71e+01 6.40e+02  -7.5 5.74e+03    -  2.01e-01 2.50e-01f  1
 314 -1.4044773e-01 2.71e+01 7.99e+02  -7.5 2.45e+04    -  2.65e-02 6.44e-03h  1
 315 -1.4044812e-01 2.70e+01 3.49e+03  -7.5 8.87e+03    -  1.53e-01 2.08e-03h  1
 316 -1.4045027e-01 2.66e+01 9.43e+02  -7.5 1.01e+04    -  8.77e-03 1.60e-02h  1
 317 -1.4047815e-01 1.40e+01 1.41e+03  -7.5 9.62e+02    -  2.40e-01 7.38e-01h  1
 318 -1.4049682e-01 5.61e+01 4.64e+03  -7.5 2.02e+03    -  2.07e-02 1.00e+00h  1
 319 -1.4049561e-01 1.15e-03 5.21e+02  -7.5 5.00e+01  -9.4 5.45e-02 1.00e+00h  1
iter    objective    inf_pr   inf_du lg(mu)  ||d||  lg(rg) alpha_du alpha_pr  ls
 320 -1.4049925e-01 5.05e-01 2.43e+02  -7.5 9.83e+01  -9.9 5.20e-01 1.00e+00h  1
 321 -1.4050954e-01 1.26e+00 7.97e+01  -7.5 2.81e+02 -10.4 6.69e-01 1.00e+00h  1
 322 -1.4052175e-01 5.42e+00 8.27e+01  -7.5 1.84e+04    -  1.43e-01 3.31e-02h  1
 323 -1.4055249e-01 6.82e+01 1.36e+02  -7.5 6.80e+03    -  1.79e-01 3.13e-01h  1
 324 -1.4055180e-01 6.64e+01 1.33e+02  -7.5 1.53e+03    -  2.12e-01 2.73e-02h  1
 325 -1.4055250e-01 6.54e+01 1.31e+02  -7.5 2.29e+03    -  5.53e-02 1.50e-02h  1
 326 -1.4055457e-01 6.45e+01 1.29e+02  -7.5 7.40e+03    -  1.51e-03 1.77e-02h  1
 327 -1.4055464e-01 6.45e+01 1.29e+02  -7.5 2.55e+03    -  5.10e-02 1.12e-03h  1
 328 -1.4055400e-01 6.44e+01 1.28e+02  -7.5 3.71e+04    -  3.00e-04 1.08e-03h  1
 329 -1.4054631e-01 6.45e+01 1.30e+02  -7.5 5.56e+04    -  2.00e-04 6.23e-03h  2
iter    objective    inf_pr   inf_du lg(mu)  ||d||  lg(rg) alpha_du alpha_pr  ls
 330 -1.4055005e-01 4.52e+00 5.09e+01  -7.5 3.64e+02 -10.0 1.49e-01 1.00e+00h  1
 331 -1.4057533e-01 1.58e+01 3.02e+01  -7.5 5.19e+03    -  4.55e-01 2.18e-01h  1
 332 -1.4057526e-01 1.57e+01 2.73e+01  -7.5 5.82e+03    -  9.07e-02 2.85e-03h  1
 333 -1.4058144e-01 1.33e+01 2.56e+01  -7.5 1.35e+03    -  6.08e-01 2.18e-01f  1
 334 -1.4058701e-01 1.20e+01 2.65e+01  -7.5 1.69e+03    -  1.00e+00 1.58e-01h  1
 335 -1.4059126e-01 5.79e+00 1.57e+01  -7.5 7.44e+02    -  9.94e-04 5.21e-01h  1
 336 -1.4061335e-01 5.30e+01 3.09e+02  -7.5 3.40e+03    -  1.48e-01 4.94e-01h  1
 337 -1.4059740e-01 2.59e+01 2.92e+02  -7.5 1.20e+03    -  1.05e-02 1.00e+00h  1
 338 -1.4061714e-01 4.43e+01 4.10e+02  -7.5 1.57e+03    -  9.24e-01 9.70e-01h  1
 339 -1.4061227e-01 1.78e+01 1.74e+02  -7.5 6.11e+02    -  1.08e-01 6.62e-01h  1
iter    objective    inf_pr   inf_du lg(mu)  ||d||  lg(rg) alpha_du alpha_pr  ls
 340 -1.4061290e-01 1.09e-01 5.11e-01  -7.5 7.35e+01 -10.4 9.41e-01 1.00e+00h  1
 341 -1.4061977e-01 5.35e+00 2.58e+01  -7.5 6.15e+03    -  2.12e-01 8.45e-02h  1
 342 -1.4061819e-01 2.84e-01 1.79e+00  -7.5 1.24e+02    -  1.00e+00 1.00e+00h  1
 343 -1.4061997e-01 3.55e-01 2.55e+00  -7.5 1.33e+02    -  1.00e+00 1.00e+00h  1
 344 -1.4062006e-01 6.87e-04 5.86e-03  -7.5 5.51e+00    -  1.00e+00 1.00e+00h  1
 345 -1.4062003e-01 5.34e-05 2.91e-04  -7.5 1.63e+00    -  1.00e+00 1.00e+00h  1
 346 -1.4062003e-01 3.84e-09 3.87e-08  -7.5 1.38e-02    -  1.00e+00 1.00e+00h  1
 347 -1.4062341e-01 9.92e-02 2.70e+00  -9.0 2.59e+02    -  2.73e-01 3.15e-01h  1
 348 -1.4063040e-01 2.08e+01 2.32e+01  -9.0 3.16e+04    -  7.60e-02 3.24e-02h  1
 349 -1.4063713e-01 2.55e+01 3.15e+01  -9.0 3.59e+03    -  1.67e-01 2.06e-01h  1
iter    objective    inf_pr   inf_du lg(mu)  ||d||  lg(rg) alpha_du alpha_pr  ls
 350 -1.4064150e-01 2.54e+01 3.34e+01  -9.0 4.17e+03    -  3.21e-01 1.54e-01h  1
 351 -1.4064966e-01 4.65e+01 4.32e+01  -9.0 3.36e+03    -  3.76e-01 4.09e-01h  1
 352 -1.4065354e-01 4.11e+01 2.49e+01  -9.0 1.55e+03    -  8.04e-03 8.31e-01h  1
 353 -1.4065070e-01 1.39e-01 6.26e+00  -9.0 1.03e+02    -  4.87e-02 1.00e+00h  1
 354 -1.4065130e-01 3.85e-02 1.07e-02  -9.0 4.34e+01    -  1.00e+00 1.00e+00h  1
 355 -1.4065130e-01 7.81e-03 4.50e-03  -9.0 1.96e+01    -  1.00e+00 1.00e+00h  1
 356 -1.4065129e-01 1.27e-08 6.52e-08  -9.0 1.71e-02    -  1.00e+00 1.00e+00h  1
 357 -1.4065129e-01 2.88e-10 8.19e-13  -9.0 1.27e-06    -  1.00e+00 1.00e+00h  1

Number of Iterations....: 357

                                   (scaled)                 (unscaled)
Objective...............:  -1.4065129440981672e-01   -1.4065129440981672e-01
Dual infeasibility......:   8.1941398111240460e-13    8.1941398111240460e-13
Constraint violation....:   2.8783785424590924e-10    2.8783785424590924e-10
Complementarity.........:   9.0909093388824572e-10    9.0909093388824572e-10
Overall NLP error.......:   9.0909093388824572e-10    9.0909093388824572e-10


Number of objective function evaluations             = 445
Number of objective gradient evaluations             = 356
Number of equality constraint evaluations            = 445
Number of inequality constraint evaluations          = 446
Number of equality constraint Jacobian evaluations   = 362
Number of inequality constraint Jacobian evaluations = 362
Number of Lagrangian Hessian evaluations             = 357
Total CPU secs in IPOPT (w/o function evaluations)   =    167.261
Total CPU secs in NLP function evaluations           =      5.742

EXIT: Optimal Solution Found.
